proyfinal/src/viki/013/andrea/andrea-localstore/experimentInOfficeAgust.take6/worker_2/f4af5366-44a3-47ad-a5d6-5e00ee21830f.als.cnf.out
Reading from standard input... Use '--help' for help.
============================[ Problem Statistics ]=============================
|                                                                             |
|  Number of variables:         87638                                         |
|  Number of clauses:          161767                                         |
|  Parse time:                   0.04 s                                       |
|                                                                             |
============================[ Search Statistics ]==============================
| Conflicts |          ORIGINAL         |          LEARNT          | Progress |
|           |    Vars  Clauses Literals |    Limit  Clauses Lit/Cl |          |
===============================================================================
|       100 |   62029   103905   259581 |    38098      100     22 | 29.221 % |
|       250 |   62029   103905   259581 |    41908      250     38 | 29.221 % |
|       475 |   62029   103905   259581 |    46099      475     59 | 29.221 % |
|       812 |   62029   103905   259581 |    50709      812     67 | 29.221 % |
|      1318 |   62029   103905   259581 |    55780     1318     69 | 29.221 % |
|      2077 |   62010   103829   259399 |    61358     2075     86 | 29.243 % |
|      3216 |   62010   103829   259399 |    67493     3214     81 | 29.243 % |
|      4924 |   62010   103829   259399 |    74243     4922     88 | 29.243 % |
|      7486 |   62010   103829   259399 |    81667     7484    102 | 29.243 % |
|     11330 |   48251    62498   158727 |    89834     4377     67 | 44.943 % |
===============================================================================
restarts              : 49
conflicts             : 11499          (6661 /sec)
decisions             : 40686          (0.00 % random) (23568 /sec)
propagations          : 17665927       (10233352 /sec)
conflict literals     : 1115192        (50.25 % deleted)
Memory used           : 31.41 MB
CPU time              : 1.72631 s

UNSATISFIABLE
